solution status: optimal solution found
objective value:                                    0
shell_i_bank.pump1_flush_hole                       1 	(obj:0)
shell_j_bank.pump1_flush_hole                       1 	(obj:0)
shell_k_bank.pump1_flush_hole                       1 	(obj:0)
shell_j_bank.pump2_flush_hole                       1 	(obj:0)
shell_k_bank.pump2_flush_hole                       1 	(obj:0)
shell_i_bank.sep_flush_hole                         1 	(obj:0)
shell_k_bank.sep_flush_hole                         1 	(obj:0)
shell_i_bank.sieve_flush_hole                       1 	(obj:0)
shell_k_bank.sieve_flush_hole                       1 	(obj:0)
shell_j_bank.pump1_hole                             1 	(obj:0)
shell_k_bank.pump1_hole                             1 	(obj:0)
shell_i_bank.sieve_ctrl_hole                        1 	(obj:0)
shell_j_bank.sieve_ctrl_hole                        1 	(obj:0)
shell_k_bank.sieve_ctrl_hole                        1 	(obj:0)
shell_i_bank.pump2_hole                             1 	(obj:0)
shell_j_bank.pump2_hole                             1 	(obj:0)
shell_k_bank.pump2_hole                             1 	(obj:0)
shell_i_bank.pump3_flush_hole                       1 	(obj:0)
shell_j_bank.pump3_flush_hole                       1 	(obj:0)
shell_k_bank.pump3_flush_hole                       1 	(obj:0)
shell_i_bank.sep_ctrl_hole                          1 	(obj:0)
shell_j_bank.sep_ctrl_hole                          1 	(obj:0)
shell_k_bank.sep_ctrl_hole                          1 	(obj:0)
shell_j_bank.pump3_hole                             1 	(obj:0)
shell_k_bank.pump3_hole                             1 	(obj:0)
bank.sieve_ctrl_hole_x                              2 	(obj:0)
bank.sieve_ctrl_hole_y                              2 	(obj:0)
bank.sieve_ctrl_hole_z                              2 	(obj:0)
bank.pump2_flush_hole_y                            -2 	(obj:0)
bank.pump2_flush_hole_z                            -2 	(obj:0)
bank.pump2_hole_x                                  -2 	(obj:0)
bank.pump2_hole_y                                  -2 	(obj:0)
bank.pump2_hole_z                                  -2 	(obj:0)
bank.sieve_flush_hole_x                            -2 	(obj:0)
bank.sieve_flush_hole_z                            -2 	(obj:0)
bank.pump3_flush_hole_x                            -2 	(obj:0)
bank.pump3_flush_hole_y                             2 	(obj:0)
bank.pump3_flush_hole_z                            -2 	(obj:0)
bank.pump1_flush_hole_x                             2 	(obj:0)
bank.pump1_flush_hole_y                            -2 	(obj:0)
bank.pump1_flush_hole_z                            -2 	(obj:0)
bank.sep_ctrl_hole_x                                2 	(obj:0)
bank.sep_ctrl_hole_y                                2 	(obj:0)
bank.sep_ctrl_hole_z                               -2 	(obj:0)
bank.pump1_hole_y                                   2 	(obj:0)
bank.pump1_hole_z                                   2 	(obj:0)
bank.pump3_hole_y                                   2 	(obj:0)
bank.pump3_hole_z                                  -2 	(obj:0)
bank.sep_flush_hole_x                               2 	(obj:0)
bank.sep_flush_hole_z                               2 	(obj:0)
